decision_x1=[0,2];
decision_x2=[0,2];
decision_x3=[0,2];
decision_x4=[0,2];
decision_x5=[0,2];
random_y1=[0,2];
constraint_x2_x1=[
0,1,2.1|
0,2,4|
1,0,9|
1,2,4.8|
2,0,3.4|
2,1,7.4|
];
constraint_x3_x2=[
0,1,2.4|
0,2,7.5|
1,0,3.9|
1,2,3.5|
2,0,3.7|
2,1,2.5|
];
constraint_x4_x3=[
0,1,7.6|
0,2,9.3|
1,0,5.7|
1,2,4.1|
2,0,7.8|
2,1,9.2|
];
constraint_x5_x2=[
0,1,6|
0,2,7.6|
1,0,2.2|
1,2,6.4|
2,0,5.8|
2,1,9.4|
];
constraint_x5_x4=[
0,1,4.1|
0,2,7.9|
1,0,5.9|
1,2,1.7|
2,0,6.1|
2,1,1.7|
];
constraint_x1_y1=[
0,0,10|
0,1,7.2|
0,2,9.1|
1,0,4|
1,1,7.3|
1,2,0.22|
2,0,7.5|
2,1,5.5|
2,2,7.1|
];
initial_distribution_y1=[0.46,0.12,0.42];
transition_y1=[
0.7,0.071,0.23|
0.19,0.42,0.39|
0.7,0.22,0.082|
];
